p cnf 196 1
196 0
w 1 0.205931
w 2 1 1
w 2 -1 0
w 3 2 0.139387
w 3 -2 0.933837
w 4 3 0.393578
w 4 -3 0.573385
w 5 4 0.658788
w 5 -4 0.793638
w 6 5 0.232525
w 6 -5 0.887584
w 7 6 0.334554
w 7 -6 0.740222
w 8 7 0
w 8 -7 1
w 9 8 0.974043
w 9 -8 0.138152
w 10 9 1
w 10 -9 0
w 11 10 0
w 11 -10 1
w 12 11 0.571013
w 12 -11 0.922322
w 13 12 0.776945
w 13 -12 0.0834349
w 14 13 1
w 14 -13 0
w 15 1 1
w 15 -1 0
w 16 15 2 1
w 16 15 -2 1
w 16 -15 2 1
w 16 -15 -2 0
w 17 16 3 0.722361
w 17 16 -3 0.507713
w 17 -16 3 0.462466
w 17 -16 -3 0.509054
w 18 17 4 0.202688
w 18 17 -4 0.78777
w 18 -17 4 0.700296
w 18 -17 -4 0.987409
w 19 18 5 0.838449
w 19 18 -5 0.228092
w 19 -18 5 0.860668
w 19 -18 -5 0.235062
w 20 19 6 0.809329
w 20 19 -6 0.806075
w 20 -19 6 0.794344
w 20 -19 -6 0.511906
w 21 20 7 0.877778
w 21 20 -7 0.785928
w 21 -20 7 0.987539
w 21 -20 -7 0.1006
w 22 21 8 0.105685
w 22 21 -8 0.717
w 22 -21 8 0.775032
w 22 -21 -8 0.840676
w 23 22 9 0.349915
w 23 22 -9 0.563037
w 23 -22 9 0.499901
w 23 -22 -9 0.812381
w 24 23 10 1
w 24 23 -10 1
w 24 -23 10 0
w 24 -23 -10 1
w 25 24 11 1
w 25 24 -11 0
w 25 -24 11 0
w 25 -24 -11 0
w 26 25 12 1
w 26 25 -12 0
w 26 -25 12 0
w 26 -25 -12 0
w 27 26 13 0.774714
w 27 26 -13 0.589508
w 27 -26 13 0.49261
w 27 -26 -13 0.875314
w 28 27 14 0.598296
w 28 27 -14 0.592315
w 28 -27 14 0.358328
w 28 -27 -14 0.438972
w 29 15 0.708242
w 29 -15 0.00200926
w 30 29 16 0
w 30 29 -16 1
w 30 -29 16 0
w 30 -29 -16 1
w 31 30 17 0.469038
w 31 30 -17 0.538171
w 31 -30 17 0.555639
w 31 -30 -17 0.349952
w 32 31 18 0.0379838
w 32 31 -18 0.465928
w 32 -31 18 0.871332
w 32 -31 -18 0.329657
w 33 32 19 1
w 33 32 -19 1
w 33 -32 19 1
w 33 -32 -19 0
w 34 33 20 1
w 34 33 -20 1
w 34 -33 20 0
w 34 -33 -20 0
w 35 34 21 0.422928
w 35 34 -21 0.595112
w 35 -34 21 0.37261
w 35 -34 -21 0.424938
w 36 35 22 0.893234
w 36 35 -22 0.499039
w 36 -35 22 0.106089
w 36 -35 -22 0.428926
w 37 36 23 0
w 37 36 -23 0
w 37 -36 23 1
w 37 -36 -23 0
w 38 37 24 0.0266253
w 38 37 -24 0.391007
w 38 -37 24 0.607169
w 38 -37 -24 0.356283
w 39 38 25 0.375437
w 39 38 -25 0.489519
w 39 -38 25 0.672037
w 39 -38 -25 0.918418
w 40 39 26 1
w 40 39 -26 0
w 40 -39 26 0
w 40 -39 -26 1
w 41 40 27 0
w 41 40 -27 0
w 41 -40 27 1
w 41 -40 -27 0
w 42 41 28 0.621951
w 42 41 -28 0.448516
w 42 -41 28 0.388559
w 42 -41 -28 0.728041
w 43 29 0.821562
w 43 -29 0.303168
w 44 43 30 0.810203
w 44 43 -30 0.228247
w 44 -43 30 0.580377
w 44 -43 -30 0.836829
w 45 44 31 0.187546
w 45 44 -31 0.193111
w 45 -44 31 0.398241
w 45 -44 -31 0.562983
w 46 45 32 0.0702777
w 46 45 -32 0.4814
w 46 -45 32 0.894894
w 46 -45 -32 0.127976
w 47 46 33 0.413199
w 47 46 -33 0.16963
w 47 -46 33 0.165436
w 47 -46 -33 0.595871
w 48 47 34 0.10787
w 48 47 -34 0.151153
w 48 -47 34 0.523734
w 48 -47 -34 0.729822
w 49 48 35 0.912293
w 49 48 -35 0.457863
w 49 -48 35 0.477112
w 49 -48 -35 0.733855
w 50 49 36 0.321651
w 50 49 -36 0.544058
w 50 -49 36 0.989278
w 50 -49 -36 0.902028
w 51 50 37 1
w 51 50 -37 1
w 51 -50 37 0
w 51 -50 -37 0
w 52 51 38 0.256628
w 52 51 -38 0.077051
w 52 -51 38 0.133958
w 52 -51 -38 0.151523
w 53 52 39 0
w 53 52 -39 1
w 53 -52 39 0
w 53 -52 -39 1
w 54 53 40 1
w 54 53 -40 1
w 54 -53 40 0
w 54 -53 -40 1
w 55 54 41 0.911414
w 55 54 -41 0.444898
w 55 -54 41 0.413062
w 55 -54 -41 0.388525
w 56 55 42 1
w 56 55 -42 0
w 56 -55 42 0
w 56 -55 -42 0
w 57 43 0.103697
w 57 -43 0.771904
w 58 57 44 0.677695
w 58 57 -44 0.778677
w 58 -57 44 0.354336
w 58 -57 -44 0.934324
w 59 58 45 0.488294
w 59 58 -45 0.0858464
w 59 -58 45 0.0607548
w 59 -58 -45 0.440365
w 60 59 46 0.435412
w 60 59 -46 0.557872
w 60 -59 46 0.81116
w 60 -59 -46 0.444282
w 61 60 47 0.122905
w 61 60 -47 0.976887
w 61 -60 47 0.738447
w 61 -60 -47 0.0343184
w 62 61 48 0
w 62 61 -48 0
w 62 -61 48 1
w 62 -61 -48 1
w 63 62 49 1
w 63 62 -49 0
w 63 -62 49 1
w 63 -62 -49 1
w 64 63 50 0
w 64 63 -50 1
w 64 -63 50 0
w 64 -63 -50 0
w 65 64 51 1
w 65 64 -51 1
w 65 -64 51 0
w 65 -64 -51 0
w 66 65 52 0.775478
w 66 65 -52 0.391448
w 66 -65 52 0.287872
w 66 -65 -52 0.586638
w 67 66 53 0.0711201
w 67 66 -53 0.709542
w 67 -66 53 0.812617
w 67 -66 -53 0.809567
w 68 67 54 0.234401
w 68 67 -54 0.961076
w 68 -67 54 0.166705
w 68 -67 -54 0.834938
w 69 68 55 0
w 69 68 -55 1
w 69 -68 55 1
w 69 -68 -55 1
w 70 69 56 0.0365257
w 70 69 -56 0.491955
w 70 -69 56 0.690071
w 70 -69 -56 0.0760786
w 71 57 1
w 71 -57 0
w 72 71 58 0.58293
w 72 71 -58 0.854046
w 72 -71 58 0.927395
w 72 -71 -58 0.31293
w 73 72 59 0.318843
w 73 72 -59 0.600802
w 73 -72 59 0.216162
w 73 -72 -59 0.154573
w 74 73 60 0.925704
w 74 73 -60 0.96719
w 74 -73 60 0.481489
w 74 -73 -60 0.669565
w 75 74 61 1
w 75 74 -61 1
w 75 -74 61 0
w 75 -74 -61 0
w 76 75 62 1
w 76 75 -62 0
w 76 -75 62 0
w 76 -75 -62 0
w 77 76 63 0.672899
w 77 76 -63 0.470217
w 77 -76 63 0.617497
w 77 -76 -63 0.966195
w 78 77 64 0
w 78 77 -64 0
w 78 -77 64 0
w 78 -77 -64 1
w 79 78 65 0.682921
w 79 78 -65 0.835095
w 79 -78 65 0.462857
w 79 -78 -65 0.899083
w 80 79 66 0.134779
w 80 79 -66 0.824787
w 80 -79 66 0.956857
w 80 -79 -66 0.616269
w 81 80 67 0
w 81 80 -67 0
w 81 -80 67 0
w 81 -80 -67 1
w 82 81 68 0.466615
w 82 81 -68 0.38979
w 82 -81 68 0.292969
w 82 -81 -68 0.647559
w 83 82 69 0
w 83 82 -69 0
w 83 -82 69 0
w 83 -82 -69 1
w 84 83 70 1
w 84 83 -70 0
w 84 -83 70 0
w 84 -83 -70 1
w 85 71 0.697833
w 85 -71 0.575823
w 86 85 72 1
w 86 85 -72 1
w 86 -85 72 0
w 86 -85 -72 1
w 87 86 73 1
w 87 86 -73 0
w 87 -86 73 0
w 87 -86 -73 0
w 88 87 74 0.124664
w 88 87 -74 0.692035
w 88 -87 74 0.758649
w 88 -87 -74 0.591279
w 89 88 75 1
w 89 88 -75 1
w 89 -88 75 0
w 89 -88 -75 1
w 90 89 76 0.891914
w 90 89 -76 0.33789
w 90 -89 76 0.84595
w 90 -89 -76 0.731418
w 91 90 77 1
w 91 90 -77 1
w 91 -90 77 0
w 91 -90 -77 0
w 92 91 78 1
w 92 91 -78 0
w 92 -91 78 1
w 92 -91 -78 1
w 93 92 79 0.0480762
w 93 92 -79 0.747461
w 93 -92 79 0.768784
w 93 -92 -79 0.545135
w 94 93 80 0.893448
w 94 93 -80 0.23717
w 94 -93 80 0.476682
w 94 -93 -80 0.484727
w 95 94 81 0
w 95 94 -81 0
w 95 -94 81 1
w 95 -94 -81 0
w 96 95 82 0
w 96 95 -82 1
w 96 -95 82 0
w 96 -95 -82 0
w 97 96 83 1
w 97 96 -83 1
w 97 -96 83 0
w 97 -96 -83 1
w 98 97 84 0
w 98 97 -84 1
w 98 -97 84 1
w 98 -97 -84 1
w 99 85 0.66834
w 99 -85 0.151701
w 100 99 86 1
w 100 99 -86 1
w 100 -99 86 1
w 100 -99 -86 0
w 101 100 87 0.508252
w 101 100 -87 0.8153
w 101 -100 87 0.253003
w 101 -100 -87 0.0365527
w 102 101 88 0.82376
w 102 101 -88 0.450859
w 102 -101 88 0.821727
w 102 -101 -88 0.286432
w 103 102 89 1
w 103 102 -89 0
w 103 -102 89 0
w 103 -102 -89 0
w 104 103 90 0
w 104 103 -90 0
w 104 -103 90 0
w 104 -103 -90 1
w 105 104 91 0
w 105 104 -91 1
w 105 -104 91 0
w 105 -104 -91 0
w 106 105 92 0.116545
w 106 105 -92 0.746653
w 106 -105 92 0.592721
w 106 -105 -92 0.447118
w 107 106 93 0.100973
w 107 106 -93 0.262418
w 107 -106 93 0.933663
w 107 -106 -93 0.137526
w 108 107 94 0.757423
w 108 107 -94 0.588385
w 108 -107 94 0.623009
w 108 -107 -94 0.0438545
w 109 108 95 0.573548
w 109 108 -95 0.524375
w 109 -108 95 0.125322
w 109 -108 -95 0.334627
w 110 109 96 0.525653
w 110 109 -96 0.285809
w 110 -109 96 0.140786
w 110 -109 -96 0.320145
w 111 110 97 0.151867
w 111 110 -97 0.218262
w 111 -110 97 0.214958
w 111 -110 -97 0.831288
w 112 111 98 0
w 112 111 -98 1
w 112 -111 98 0
w 112 -111 -98 0
w 113 99 1
w 113 -99 0
w 114 113 100 0
w 114 113 -100 1
w 114 -113 100 0
w 114 -113 -100 0
w 115 114 101 0
w 115 114 -101 0
w 115 -114 101 1
w 115 -114 -101 0
w 116 115 102 0.112476
w 116 115 -102 0.989836
w 116 -115 102 0.778013
w 116 -115 -102 0.63813
w 117 116 103 0
w 117 116 -103 0
w 117 -116 103 1
w 117 -116 -103 0
w 118 117 104 1
w 118 117 -104 1
w 118 -117 104 0
w 118 -117 -104 1
w 119 118 105 0.459347
w 119 118 -105 0.602888
w 119 -118 105 0.244739
w 119 -118 -105 0.154739
w 120 119 106 1
w 120 119 -106 1
w 120 -119 106 0
w 120 -119 -106 1
w 121 120 107 0.442419
w 121 120 -107 0.600602
w 121 -120 107 0.86289
w 121 -120 -107 0.0976277
w 122 121 108 0.975366
w 122 121 -108 0.0874635
w 122 -121 108 0.333322
w 122 -121 -108 0.613496
w 123 122 109 0
w 123 122 -109 1
w 123 -122 109 1
w 123 -122 -109 0
w 124 123 110 0.0640472
w 124 123 -110 0.224741
w 124 -123 110 0.192922
w 124 -123 -110 0.298105
w 125 124 111 1
w 125 124 -111 1
w 125 -124 111 0
w 125 -124 -111 1
w 126 125 112 0.221375
w 126 125 -112 0.590801
w 126 -125 112 0.653704
w 126 -125 -112 0.582134
w 127 113 0.529439
w 127 -113 0.0245535
w 128 127 114 0
w 128 127 -114 1
w 128 -127 114 1
w 128 -127 -114 0
w 129 128 115 1
w 129 128 -115 1
w 129 -128 115 1
w 129 -128 -115 0
w 130 129 116 0.178852
w 130 129 -116 0.825215
w 130 -129 116 0.301267
w 130 -129 -116 0.242899
w 131 130 117 0
w 131 130 -117 1
w 131 -130 117 1
w 131 -130 -117 1
w 132 131 118 1
w 132 131 -118 0
w 132 -131 118 1
w 132 -131 -118 0
w 133 132 119 0.0693823
w 133 132 -119 0.247262
w 133 -132 119 0.30534
w 133 -132 -119 0.598821
w 134 133 120 0
w 134 133 -120 0
w 134 -133 120 1
w 134 -133 -120 1
w 135 134 121 0
w 135 134 -121 1
w 135 -134 121 0
w 135 -134 -121 1
w 136 135 122 1
w 136 135 -122 1
w 136 -135 122 1
w 136 -135 -122 0
w 137 136 123 0.211904
w 137 136 -123 0.688449
w 137 -136 123 0.139148
w 137 -136 -123 0.336388
w 138 137 124 0.581144
w 138 137 -124 0.780141
w 138 -137 124 0.788374
w 138 -137 -124 0.996823
w 139 138 125 1
w 139 138 -125 1
w 139 -138 125 0
w 139 -138 -125 1
w 140 139 126 0.964346
w 140 139 -126 0.304996
w 140 -139 126 0.656175
w 140 -139 -126 0.358342
w 141 127 0.0150179
w 141 -127 0.961983
w 142 141 128 0.35505
w 142 141 -128 0.138377
w 142 -141 128 0.0600331
w 142 -141 -128 0.248043
w 143 142 129 0
w 143 142 -129 0
w 143 -142 129 1
w 143 -142 -129 0
w 144 143 130 0
w 144 143 -130 1
w 144 -143 130 0
w 144 -143 -130 0
w 145 144 131 0.754033
w 145 144 -131 0.808883
w 145 -144 131 0.995681
w 145 -144 -131 0.0866753
w 146 145 132 0.688211
w 146 145 -132 0.724657
w 146 -145 132 0.540113
w 146 -145 -132 0.652557
w 147 146 133 1
w 147 146 -133 0
w 147 -146 133 1
w 147 -146 -133 1
w 148 147 134 0.641949
w 148 147 -134 0.566357
w 148 -147 134 0.11126
w 148 -147 -134 0.701982
w 149 148 135 0.604883
w 149 148 -135 0.923963
w 149 -148 135 0.256703
w 149 -148 -135 0.696651
w 150 149 136 0
w 150 149 -136 1
w 150 -149 136 0
w 150 -149 -136 0
w 151 150 137 0.678532
w 151 150 -137 0.107147
w 151 -150 137 0.54851
w 151 -150 -137 0.674214
w 152 151 138 1
w 152 151 -138 0
w 152 -151 138 1
w 152 -151 -138 0
w 153 152 139 0
w 153 152 -139 1
w 153 -152 139 0
w 153 -152 -139 1
w 154 153 140 1
w 154 153 -140 0
w 154 -153 140 1
w 154 -153 -140 1
w 155 141 0
w 155 -141 1
w 156 155 142 0.134676
w 156 155 -142 0.00876452
w 156 -155 142 0.411558
w 156 -155 -142 0.492523
w 157 156 143 1
w 157 156 -143 1
w 157 -156 143 0
w 157 -156 -143 0
w 158 157 144 0
w 158 157 -144 1
w 158 -157 144 0
w 158 -157 -144 1
w 159 158 145 0
w 159 158 -145 0
w 159 -158 145 0
w 159 -158 -145 1
w 160 159 146 0.174569
w 160 159 -146 0.376677
w 160 -159 146 0.783697
w 160 -159 -146 0.545874
w 161 160 147 0
w 161 160 -147 1
w 161 -160 147 0
w 161 -160 -147 0
w 162 161 148 1
w 162 161 -148 1
w 162 -161 148 0
w 162 -161 -148 0
w 163 162 149 0.951052
w 163 162 -149 0.750984
w 163 -162 149 0.389914
w 163 -162 -149 0.029804
w 164 163 150 1
w 164 163 -150 1
w 164 -163 150 1
w 164 -163 -150 0
w 165 164 151 0.35936
w 165 164 -151 0.265478
w 165 -164 151 0.722494
w 165 -164 -151 0.710155
w 166 165 152 1
w 166 165 -152 0
w 166 -165 152 1
w 166 -165 -152 0
w 167 166 153 1
w 167 166 -153 1
w 167 -166 153 0
w 167 -166 -153 1
w 168 167 154 0
w 168 167 -154 1
w 168 -167 154 1
w 168 -167 -154 0
w 169 155 0.047014
w 169 -155 0.711085
w 170 169 156 1
w 170 169 -156 1
w 170 -169 156 0
w 170 -169 -156 0
w 171 170 157 1
w 171 170 -157 0
w 171 -170 157 1
w 171 -170 -157 1
w 172 171 158 1
w 172 171 -158 1
w 172 -171 158 0
w 172 -171 -158 0
w 173 172 159 0.393978
w 173 172 -159 0.168372
w 173 -172 159 0.973127
w 173 -172 -159 0.652496
w 174 173 160 0
w 174 173 -160 1
w 174 -173 160 0
w 174 -173 -160 0
w 175 174 161 0.829002
w 175 174 -161 0.343453
w 175 -174 161 0.710361
w 175 -174 -161 0.540088
w 176 175 162 0.147289
w 176 175 -162 0.280977
w 176 -175 162 0.955216
w 176 -175 -162 0.830611
w 177 176 163 0.309724
w 177 176 -163 0.810629
w 177 -176 163 0.784811
w 177 -176 -163 0.0235912
w 178 177 164 0
w 178 177 -164 1
w 178 -177 164 0
w 178 -177 -164 1
w 179 178 165 0.877992
w 179 178 -165 0.506992
w 179 -178 165 0.931597
w 179 -178 -165 0.530488
w 180 179 166 0.85246
w 180 179 -166 0.944644
w 180 -179 166 0.85875
w 180 -179 -166 0.921429
w 181 180 167 0.522097
w 181 180 -167 0.750432
w 181 -180 167 0.101731
w 181 -180 -167 0.232458
w 182 181 168 0
w 182 181 -168 0
w 182 -181 168 1
w 182 -181 -168 1
w 183 169 1
w 183 -169 0
w 184 183 170 0.0209874
w 184 183 -170 0.0352405
w 184 -183 170 0.0145173
w 184 -183 -170 0.0771125
w 185 184 171 0.462132
w 185 184 -171 0.561126
w 185 -184 171 0.987045
w 185 -184 -171 0.420601
w 186 185 172 0
w 186 185 -172 1
w 186 -185 172 0
w 186 -185 -172 0
w 187 186 173 1
w 187 186 -173 0
w 187 -186 173 1
w 187 -186 -173 1
w 188 187 174 1
w 188 187 -174 0
w 188 -187 174 1
w 188 -187 -174 1
w 189 188 175 1
w 189 188 -175 0
w 189 -188 175 1
w 189 -188 -175 0
w 190 189 176 1
w 190 189 -176 1
w 190 -189 176 0
w 190 -189 -176 1
w 191 190 177 0.649023
w 191 190 -177 0.958508
w 191 -190 177 0.659675
w 191 -190 -177 0.0696237
w 192 191 178 0
w 192 191 -178 0
w 192 -191 178 1
w 192 -191 -178 0
w 193 192 179 0.281482
w 193 192 -179 0.204205
w 193 -192 179 0.752567
w 193 -192 -179 0.95401
w 194 193 180 0.629087
w 194 193 -180 0.728269
w 194 -193 180 0.390101
w 194 -193 -180 0.796126
w 195 194 181 0
w 195 194 -181 1
w 195 -194 181 1
w 195 -194 -181 1
w 196 195 182 0.0985767
w 196 195 -182 0.547832
w 196 -195 182 0.769227
w 196 -195 -182 0.495959